************************************************************************
file with basedata            : J1208_.BAS
initial value random generator: 493475275
************************************************************************
projects                      :  1
jobs (incl. supersource/sink ):  122
horizon                       :  618
RESOURCES
  - renewable                 :  4   R
  - nonrenewable              :  0   N
  - doubly constrained        :  0   D
************************************************************************
PROJECT INFORMATION:
pronr.  #jobs rel.date duedate tardcost  MPM-Time
    1    120      0       82       19       82
************************************************************************
PRECEDENCE RELATIONS:
jobnr.    #modes  #successors   successors
   1        1          3           2   3   4
   2        1          3           8  11  24
   3        1          3           5   6   7
   4        1          3           9  14  16
   5        1          2          28  84
   6        1          3          10  12  21
   7        1          3          17  23  27
   8        1          3          40  81  93
   9        1          3          19  30  37
  10        1          1          22
  11        1          3          18  20  49
  12        1          3          13  56  68
  13        1          3          25  26  32
  14        1          1          15
  15        1          2          53 111
  16        1          3          42  86 115
  17        1          3          38  41  92
  18        1          1          97
  19        1          1          48
  20        1          3          34  39  58
  21        1          1         109
  22        1          1          70
  23        1          3          31  47  52
  24        1          3          33  65  69
  25        1          1          29
  26        1          2          62 104
  27        1          3          35  51 103
  28        1          1          83
  29        1          3          43  55  67
  30        1          2          49  92
  31        1          2          46  82
  32        1          3          36  50 106
  33        1          1          59
  34        1          3          48  63 107
  35        1          1          44
  36        1          1          60
  37        1          1          45
  38        1          2          94 113
  39        1          2          52  86
  40        1          1          57
  41        1          3          54  80 120
  42        1          1          61
  43        1          1          84
  44        1          1          58
  45        1          1          88
  46        1          1          57
  47        1          1          78
  48        1          2          72 117
  49        1          1          71
  50        1          1          95
  51        1          1          85
  52        1          1          87
  53        1          1         105
  54        1          1          73
  55        1          1          96
  56        1          3          58  66  76
  57        1          1          64
  58        1          1          91
  59        1          1         114
  60        1          1         120
  61        1          2          75  80
  62        1          2          65 106
  63        1          3          79  89 100
  64        1          1          83
  65        1          1          75
  66        1          1          93
  67        1          1         118
  68        1          1          89
  69        1          1          96
  70        1          1         105
  71        1          1         110
  72        1          2          74  96
  73        1          1          88
  74        1          1         104
  75        1          1          77
  76        1          1         108
  77        1          1          98
  78        1          1         108
  79        1          1          88
  80        1          1          98
  81        1          1          83
  82        1          1          97
  83        1          1         110
  84        1          1         110
  85        1          1          87
  86        1          1         100
  87        1          2          90 118
  88        1          1         112
  89        1          2          90 113
  90        1          1         101
  91        1          1         105
  92        1          1          98
  93        1          1         116
  94        1          1         101
  95        1          1         119
  96        1          1         101
  97        1          1          99
  98        1          2         102 119
  99        1          1         112
 100        1          1         102
 101        1          1         102
 102        1          1         112
 103        1          2         107 108
 104        1          2         115 119
 105        1          1         116
 106        1          1         107
 107        1          1         115
 108        1          1         111
 109        1          1         111
 110        1          1         120
 111        1          1         116
 112        1          1         121
 113        1          1         114
 114        1          1         117
 115        1          1         118
 116        1          1         117
 117        1          1         121
 118        1          1         121
 119        1          1         122
 120        1          1         122
 121        1          1         122
 122        1          0        
************************************************************************
REQUESTS/DURATIONS:
jobnr. mode duration  R 1  R 2  R 3  R 4
------------------------------------------------------------------------
  1      1     0       0    0    0    0
  2      1     9       0    6    7    0
  3      1     9       6    0    1    0
  4      1     1       0    0    0   10
  5      1     8       6    3    0    0
  6      1     6       0    0    3    8
  7      1     6       0    0    1    6
  8      1     6       2    1    0    7
  9      1     1       0    8    0    5
 10      1     2       0    0    1    0
 11      1     5       0    6    0    0
 12      1     8       8    0    0    1
 13      1     5       0    8    6    0
 14      1     3       9    7    0    0
 15      1    10       0    7    0    6
 16      1     1       6    0   10    9
 17      1     6       0    9    0    4
 18      1     1       0    0    5    7
 19      1     7       7    0    6    0
 20      1     9       8    0    6    0
 21      1     1       5    4    0    7
 22      1     6       0    6    0    0
 23      1     5       2    0    0    5
 24      1     2       9   10    8    0
 25      1     7       5    0    2    5
 26      1     6       0    6    0    0
 27      1     9       3    0    1   10
 28      1     2       0    4    6    0
 29      1     3       0    0    6    0
 30      1     4      10    0    0    5
 31      1     5       0    0    6    0
 32      1     3       0    0    0    9
 33      1     2       9    1    0    7
 34      1     2       0    0    6    0
 35      1     5      10    0    0    0
 36      1     2      10    3    6   10
 37      1     7       2    0    0    2
 38      1     6       0    7    8    0
 39      1     2       0    0   10    6
 40      1     1      10    7    9    0
 41      1     3       0    6    0    0
 42      1     5       3    7    7    0
 43      1     5       0    0   10    0
 44      1     9       0    5    0    0
 45      1     4       0    4    0    4
 46      1     1       9    0    0    3
 47      1     3       4    0    3   10
 48      1     2       7    4    0    0
 49      1     1       9    0    8   10
 50      1     8       9    0    0    7
 51      1    10       4    0    0    0
 52      1     6       8    4   10    0
 53      1     9       3    6   10    0
 54      1     7       6    0    4    0
 55      1     6       0    1    0    7
 56      1     4       7    4    9    0
 57      1     3      10    3    0    4
 58      1    10       0    0    7    0
 59      1     8       9    1    0    0
 60      1     1       4    5    0   10
 61      1     8       0    0   10    4
 62      1     4       6    0    6    5
 63      1     2       0    6    0    1
 64      1     4       0    3    9    0
 65      1     3       0    8    9    0
 66      1     4       0    0    0    5
 67      1     4       5    2    6    0
 68      1     1       7    8    0    0
 69      1     4       0   10    3    0
 70      1     9       0    6   10    0
 71      1     6       0    9    8    3
 72      1     9       8    6    0    0
 73      1     6       0    3    0    8
 74      1     9       0    0    6    0
 75      1     9       0    0    0    3
 76      1     1       5    1    0    1
 77      1     3       0    2   10   10
 78      1     5       0    0   10    0
 79      1     1       1    0    0    0
 80      1     9      10    7    5    0
 81      1     9       0    0    0    4
 82      1     9       0    2    1    0
 83      1     1       0    0    8    8
 84      1     5       0    7    6    0
 85      1     1       0    6    7    0
 86      1     8       6    4    6   10
 87      1     7       3   10    6    0
 88      1     3       0    0    8    0
 89      1     5       0    0   10    0
 90      1    10       0    2    0    0
 91      1     6       0    1    0    0
 92      1     3       1    0    0    2
 93      1     3       3    0    1    0
 94      1     7       0    9    0    0
 95      1     7       0    4    0    9
 96      1     3       7    0    1    0
 97      1    10       8    0    7    0
 98      1     8       0    4    0    0
 99      1     1       0    9    3    0
100      1     6       0    9    6    6
101      1     9       0    5    0    5
102      1     4       0    0    0    9
103      1     6       7    0    2    2
104      1     3       8    7    8    2
105      1     3       5    6    0    3
106      1    10       0    0    5    3
107      1     5       0    3    4    0
108      1     3       0    1    0    0
109      1     3       3    3    4    0
110      1     4       0    0    0    8
111      1     1       0    5    9    0
112      1    10       0    0    0    2
113      1     7       6    0    1    0
114      1     7       7    0    7    0
115      1     4       0    4    0    2
116      1     7       3    0    0    0
117      1     2       0    0    3    0
118      1     4       1    0    0    2
119      1    10       2    2    0    0
120      1     8       9    0   10    5
121      1     7       0    6    0    7
122      1     0       0    0    0    0
************************************************************************
RESOURCEAVAILABILITIES:
  R 1  R 2  R 3  R 4
   30   24   30   20
************************************************************************
